NAME: n40q15H.tsp, 40 nodes, semilla 777
COMMENT: Problema aleatorio de norma euclidea
DIMENSION: 40
CAPACITY: 15
EDGE_WEIGHT_TYPE: EUC_2D
NODE_COORD_SECTION
1   0.0000   0.0000
2 -108.0000  76.0000
3 372.0000 -432.0000
4 -57.0000 388.0000
5 286.0000 409.0000
6 424.0000 169.0000
7  58.0000 -497.0000
8 221.0000 118.0000
9 470.0000 380.0000
10 -431.0000 -422.0000
11 305.0000 -58.0000
12 457.0000 196.0000
13 493.0000 269.0000
14 281.0000 -259.0000
15 -172.0000 -484.0000
16 263.0000 -258.0000
17 -427.0000 153.0000
18 351.0000 314.0000
19 478.0000 120.0000
20 -415.0000 -203.0000
21  20.0000 -92.0000
22 113.0000 237.0000
23  57.0000 447.0000
24 -322.0000 -129.0000
25 253.0000 -27.0000
26 -387.0000 -243.0000
27 -72.0000 212.0000
28 246.0000 -337.0000
29  71.0000 279.0000
30 351.0000 -457.0000
31 253.0000 100.0000
32 -65.0000  26.0000
33 324.0000 -23.0000
34 -354.0000 -28.0000
35 332.0000 270.0000
36 276.0000 -117.0000
37 -389.0000 -49.0000
38 191.0000 -497.0000
39 189.0000 -47.0000
40 361.0000 -152.0000
DISPLAY_DATA_SECTION:
 1  250  250
 2  196  288
 3  436   34
 4  221  444
 5  393  454
 6  462  334
 7  279    1
 8  360  309
 9  485  440
10   34   39
11  402  221
12  478  348
13  496  384
14  390  120
15  164    8
16  381  121
17   36  326
18  425  407
19  489  310
20   42  148
21  260  204
22  306  368
23  278  473
24   89  185
25  376  236
26   56  128
27  214  356
28  373   81
29  285  389
30  425   21
31  376  300
32  217  263
33  412  238
34   73  236
35  416  385
36  388  191
37   55  225
38  345    1
39  344  226
40  430  174
DEMAND_SECTION
1 -4
2 9
3 -2
4 -7
5 -4
6 8
7 -5
8 9
9 10
10 9
11 -6
12 -2
13 -5
14 4
15 -4
16 -2
17 -2
18 1
19 4
20 2
21 3
22 -1
23 1
24 8
25 1
26 4
27 -4
28 -6
29 1
30 2
31 0
32 6
33 -2
34 0
35 -6
36 -7
37 -10
38 -4
39 4
40 -3
EOF